g3 0 1 0	# problem eigena
 110 0 1 0 0	# vars, constraints, objectives, ranges, eqns
 0 1	# nonlinear constraints, objectives
 0 0	# network constraints: nonlinear, linear
 0 110 0	# nonlinear vars in constraints, objectives, both
 0 0 0 1	# linear network variables; functions; arith, flags
 0 0 0 0 0	# discrete variables: binary, integer, nonlinear (b,c,o)
 0 110	# nonzeros in Jacobian, gradients
 0 0	# max name lengths: constraints, variables
 0 0 0 0 0	# common exprs: b,c,o,c1,o1
b
2 0
2 0
2 0
2 0
2 0
2 0
2 0
2 0
2 0
2 0
2 0
2 0
2 0
2 0
2 0
2 0
2 0
2 0
2 0
2 0
2 0
2 0
2 0
2 0
2 0
2 0
2 0
2 0
2 0
2 0
2 0
2 0
2 0
2 0
2 0
2 0
2 0
2 0
2 0
2 0
2 0
2 0
2 0
2 0
2 0
2 0
2 0
2 0
2 0
2 0
2 0
2 0
2 0
2 0
2 0
2 0
2 0
2 0
2 0
2 0
2 0
2 0
2 0
2 0
2 0
2 0
2 0
2 0
2 0
2 0
2 0
2 0
2 0
2 0
2 0
2 0
2 0
2 0
2 0
2 0
2 0
2 0
2 0
2 0
2 0
2 0
2 0
2 0
2 0
2 0
2 0
2 0
2 0
2 0
2 0
2 0
2 0
2 0
2 0
2 0
2 0
2 0
2 0
2 0
2 0
2 0
2 0
2 0
2 0
2 0
x20
0 1
1 1
11 1
13 1
22 1
25 1
33 1
37 1
44 1
49 1
55 1
61 1
66 1
73 1
77 1
85 1
88 1
97 1
99 1
109 1
O0 0
o54
110
o5
o0
n-1
o54
10
o2
o2
v1
v1
v0
o2
o2
v2
v2
v11
o2
o2
v3
v3
v22
o2
o2
v4
v4
v33
o2
o2
v5
v5
v44
o2
o2
v6
v6
v55
o2
o2
v7
v7
v66
o2
o2
v8
v8
v77
o2
o2
v9
v9
v88
o2
o2
v10
v10
v99
n2
o5
o0
n-1
o54
10
o2
v1
v1
o2
v2
v2
o2
v3
v3
o2
v4
v4
o2
v5
v5
o2
v6
v6
o2
v7
v7
o2
v8
v8
o2
v9
v9
o2
v10
v10
n2
o5
o54
10
o2
o2
v1
v12
v0
o2
o2
v2
v13
v11
o2
o2
v3
v14
v22
o2
o2
v4
v15
v33
o2
o2
v5
v16
v44
o2
o2
v6
v17
v55
o2
o2
v7
v18
v66
o2
o2
v8
v19
v77
o2
o2
v9
v20
v88
o2
o2
v10
v21
v99
n2
o5
o54
10
o2
v1
v12
o2
v2
v13
o2
v3
v14
o2
v4
v15
o2
v5
v16
o2
v6
v17
o2
v7
v18
o2
v8
v19
o2
v9
v20
o2
v10
v21
n2
o5
o0
n-2
o54
10
o2
o2
v12
v12
v0
o2
o2
v13
v13
v11
o2
o2
v14
v14
v22
o2
o2
v15
v15
v33
o2
o2
v16
v16
v44
o2
o2
v17
v17
v55
o2
o2
v18
v18
v66
o2
o2
v19
v19
v77
o2
o2
v20
v20
v88
o2
o2
v21
v21
v99
n2
o5
o0
n-1
o54
10
o2
v12
v12
o2
v13
v13
o2
v14
v14
o2
v15
v15
o2
v16
v16
o2
v17
v17
o2
v18
v18
o2
v19
v19
o2
v20
v20
o2
v21
v21
n2
o5
o54
10
o2
o2
v1
v23
v0
o2
o2
v2
v24
v11
o2
o2
v3
v25
v22
o2
o2
v4
v26
v33
o2
o2
v5
v27
v44
o2
o2
v6
v28
v55
o2
o2
v7
v29
v66
o2
o2
v8
v30
v77
o2
o2
v9
v31
v88
o2
o2
v10
v32
v99
n2
o5
o54
10
o2
v1
v23
o2
v2
v24
o2
v3
v25
o2
v4
v26
o2
v5
v27
o2
v6
v28
o2
v7
v29
o2
v8
v30
o2
v9
v31
o2
v10
v32
n2
o5
o54
10
o2
o2
v12
v23
v0
o2
o2
v13
v24
v11
o2
o2
v14
v25
v22
o2
o2
v15
v26
v33
o2
o2
v16
v27
v44
o2
o2
v17
v28
v55
o2
o2
v18
v29
v66
o2
o2
v19
v30
v77
o2
o2
v20
v31
v88
o2
o2
v21
v32
v99
n2
o5
o54
10
o2
v12
v23
o2
v13
v24
o2
v14
v25
o2
v15
v26
o2
v16
v27
o2
v17
v28
o2
v18
v29
o2
v19
v30
o2
v20
v31
o2
v21
v32
n2
o5
o0
n-3
o54
10
o2
o2
v23
v23
v0
o2
o2
v24
v24
v11
o2
o2
v25
v25
v22
o2
o2
v26
v26
v33
o2
o2
v27
v27
v44
o2
o2
v28
v28
v55
o2
o2
v29
v29
v66
o2
o2
v30
v30
v77
o2
o2
v31
v31
v88
o2
o2
v32
v32
v99
n2
o5
o0
n-1
o54
10
o2
v23
v23
o2
v24
v24
o2
v25
v25
o2
v26
v26
o2
v27
v27
o2
v28
v28
o2
v29
v29
o2
v30
v30
o2
v31
v31
o2
v32
v32
n2
o5
o54
10
o2
o2
v1
v34
v0
o2
o2
v2
v35
v11
o2
o2
v3
v36
v22
o2
o2
v4
v37
v33
o2
o2
v5
v38
v44
o2
o2
v6
v39
v55
o2
o2
v7
v40
v66
o2
o2
v8
v41
v77
o2
o2
v9
v42
v88
o2
o2
v10
v43
v99
n2
o5
o54
10
o2
v1
v34
o2
v2
v35
o2
v3
v36
o2
v4
v37
o2
v5
v38
o2
v6
v39
o2
v7
v40
o2
v8
v41
o2
v9
v42
o2
v10
v43
n2
o5
o54
10
o2
o2
v12
v34
v0
o2
o2
v13
v35
v11
o2
o2
v14
v36
v22
o2
o2
v15
v37
v33
o2
o2
v16
v38
v44
o2
o2
v17
v39
v55
o2
o2
v18
v40
v66
o2
o2
v19
v41
v77
o2
o2
v20
v42
v88
o2
o2
v21
v43
v99
n2
o5
o54
10
o2
v12
v34
o2
v13
v35
o2
v14
v36
o2
v15
v37
o2
v16
v38
o2
v17
v39
o2
v18
v40
o2
v19
v41
o2
v20
v42
o2
v21
v43
n2
o5
o54
10
o2
o2
v23
v34
v0
o2
o2
v24
v35
v11
o2
o2
v25
v36
v22
o2
o2
v26
v37
v33
o2
o2
v27
v38
v44
o2
o2
v28
v39
v55
o2
o2
v29
v40
v66
o2
o2
v30
v41
v77
o2
o2
v31
v42
v88
o2
o2
v32
v43
v99
n2
o5
o54
10
o2
v23
v34
o2
v24
v35
o2
v25
v36
o2
v26
v37
o2
v27
v38
o2
v28
v39
o2
v29
v40
o2
v30
v41
o2
v31
v42
o2
v32
v43
n2
o5
o0
n-4
o54
10
o2
o2
v34
v34
v0
o2
o2
v35
v35
v11
o2
o2
v36
v36
v22
o2
o2
v37
v37
v33
o2
o2
v38
v38
v44
o2
o2
v39
v39
v55
o2
o2
v40
v40
v66
o2
o2
v41
v41
v77
o2
o2
v42
v42
v88
o2
o2
v43
v43
v99
n2
o5
o0
n-1
o54
10
o2
v34
v34
o2
v35
v35
o2
v36
v36
o2
v37
v37
o2
v38
v38
o2
v39
v39
o2
v40
v40
o2
v41
v41
o2
v42
v42
o2
v43
v43
n2
o5
o54
10
o2
o2
v1
v45
v0
o2
o2
v2
v46
v11
o2
o2
v3
v47
v22
o2
o2
v4
v48
v33
o2
o2
v5
v49
v44
o2
o2
v6
v50
v55
o2
o2
v7
v51
v66
o2
o2
v8
v52
v77
o2
o2
v9
v53
v88
o2
o2
v10
v54
v99
n2
o5
o54
10
o2
v1
v45
o2
v2
v46
o2
v3
v47
o2
v4
v48
o2
v5
v49
o2
v6
v50
o2
v7
v51
o2
v8
v52
o2
v9
v53
o2
v10
v54
n2
o5
o54
10
o2
o2
v12
v45
v0
o2
o2
v13
v46
v11
o2
o2
v14
v47
v22
o2
o2
v15
v48
v33
o2
o2
v16
v49
v44
o2
o2
v17
v50
v55
o2
o2
v18
v51
v66
o2
o2
v19
v52
v77
o2
o2
v20
v53
v88
o2
o2
v21
v54
v99
n2
o5
o54
10
o2
v12
v45
o2
v13
v46
o2
v14
v47
o2
v15
v48
o2
v16
v49
o2
v17
v50
o2
v18
v51
o2
v19
v52
o2
v20
v53
o2
v21
v54
n2
o5
o54
10
o2
o2
v23
v45
v0
o2
o2
v24
v46
v11
o2
o2
v25
v47
v22
o2
o2
v26
v48
v33
o2
o2
v27
v49
v44
o2
o2
v28
v50
v55
o2
o2
v29
v51
v66
o2
o2
v30
v52
v77
o2
o2
v31
v53
v88
o2
o2
v32
v54
v99
n2
o5
o54
10
o2
v23
v45
o2
v24
v46
o2
v25
v47
o2
v26
v48
o2
v27
v49
o2
v28
v50
o2
v29
v51
o2
v30
v52
o2
v31
v53
o2
v32
v54
n2
o5
o54
10
o2
o2
v34
v45
v0
o2
o2
v35
v46
v11
o2
o2
v36
v47
v22
o2
o2
v37
v48
v33
o2
o2
v38
v49
v44
o2
o2
v39
v50
v55
o2
o2
v40
v51
v66
o2
o2
v41
v52
v77
o2
o2
v42
v53
v88
o2
o2
v43
v54
v99
n2
o5
o54
10
o2
v34
v45
o2
v35
v46
o2
v36
v47
o2
v37
v48
o2
v38
v49
o2
v39
v50
o2
v40
v51
o2
v41
v52
o2
v42
v53
o2
v43
v54
n2
o5
o0
n-5
o54
10
o2
o2
v45
v45
v0
o2
o2
v46
v46
v11
o2
o2
v47
v47
v22
o2
o2
v48
v48
v33
o2
o2
v49
v49
v44
o2
o2
v50
v50
v55
o2
o2
v51
v51
v66
o2
o2
v52
v52
v77
o2
o2
v53
v53
v88
o2
o2
v54
v54
v99
n2
o5
o0
n-1
o54
10
o2
v45
v45
o2
v46
v46
o2
v47
v47
o2
v48
v48
o2
v49
v49
o2
v50
v50
o2
v51
v51
o2
v52
v52
o2
v53
v53
o2
v54
v54
n2
o5
o54
10
o2
o2
v1
v56
v0
o2
o2
v2
v57
v11
o2
o2
v3
v58
v22
o2
o2
v4
v59
v33
o2
o2
v5
v60
v44
o2
o2
v6
v61
v55
o2
o2
v7
v62
v66
o2
o2
v8
v63
v77
o2
o2
v9
v64
v88
o2
o2
v10
v65
v99
n2
o5
o54
10
o2
v1
v56
o2
v2
v57
o2
v3
v58
o2
v4
v59
o2
v5
v60
o2
v6
v61
o2
v7
v62
o2
v8
v63
o2
v9
v64
o2
v10
v65
n2
o5
o54
10
o2
o2
v12
v56
v0
o2
o2
v13
v57
v11
o2
o2
v14
v58
v22
o2
o2
v15
v59
v33
o2
o2
v16
v60
v44
o2
o2
v17
v61
v55
o2
o2
v18
v62
v66
o2
o2
v19
v63
v77
o2
o2
v20
v64
v88
o2
o2
v21
v65
v99
n2
o5
o54
10
o2
v12
v56
o2
v13
v57
o2
v14
v58
o2
v15
v59
o2
v16
v60
o2
v17
v61
o2
v18
v62
o2
v19
v63
o2
v20
v64
o2
v21
v65
n2
o5
o54
10
o2
o2
v23
v56
v0
o2
o2
v24
v57
v11
o2
o2
v25
v58
v22
o2
o2
v26
v59
v33
o2
o2
v27
v60
v44
o2
o2
v28
v61
v55
o2
o2
v29
v62
v66
o2
o2
v30
v63
v77
o2
o2
v31
v64
v88
o2
o2
v32
v65
v99
n2
o5
o54
10
o2
v23
v56
o2
v24
v57
o2
v25
v58
o2
v26
v59
o2
v27
v60
o2
v28
v61
o2
v29
v62
o2
v30
v63
o2
v31
v64
o2
v32
v65
n2
o5
o54
10
o2
o2
v34
v56
v0
o2
o2
v35
v57
v11
o2
o2
v36
v58
v22
o2
o2
v37
v59
v33
o2
o2
v38
v60
v44
o2
o2
v39
v61
v55
o2
o2
v40
v62
v66
o2
o2
v41
v63
v77
o2
o2
v42
v64
v88
o2
o2
v43
v65
v99
n2
o5
o54
10
o2
v34
v56
o2
v35
v57
o2
v36
v58
o2
v37
v59
o2
v38
v60
o2
v39
v61
o2
v40
v62
o2
v41
v63
o2
v42
v64
o2
v43
v65
n2
o5
o54
10
o2
o2
v45
v56
v0
o2
o2
v46
v57
v11
o2
o2
v47
v58
v22
o2
o2
v48
v59
v33
o2
o2
v49
v60
v44
o2
o2
v50
v61
v55
o2
o2
v51
v62
v66
o2
o2
v52
v63
v77
o2
o2
v53
v64
v88
o2
o2
v54
v65
v99
n2
o5
o54
10
o2
v45
v56
o2
v46
v57
o2
v47
v58
o2
v48
v59
o2
v49
v60
o2
v50
v61
o2
v51
v62
o2
v52
v63
o2
v53
v64
o2
v54
v65
n2
o5
o0
n-6
o54
10
o2
o2
v56
v56
v0
o2
o2
v57
v57
v11
o2
o2
v58
v58
v22
o2
o2
v59
v59
v33
o2
o2
v60
v60
v44
o2
o2
v61
v61
v55
o2
o2
v62
v62
v66
o2
o2
v63
v63
v77
o2
o2
v64
v64
v88
o2
o2
v65
v65
v99
n2
o5
o0
n-1
o54
10
o2
v56
v56
o2
v57
v57
o2
v58
v58
o2
v59
v59
o2
v60
v60
o2
v61
v61
o2
v62
v62
o2
v63
v63
o2
v64
v64
o2
v65
v65
n2
o5
o54
10
o2
o2
v1
v67
v0
o2
o2
v2
v68
v11
o2
o2
v3
v69
v22
o2
o2
v4
v70
v33
o2
o2
v5
v71
v44
o2
o2
v6
v72
v55
o2
o2
v7
v73
v66
o2
o2
v8
v74
v77
o2
o2
v9
v75
v88
o2
o2
v10
v76
v99
n2
o5
o54
10
o2
v1
v67
o2
v2
v68
o2
v3
v69
o2
v4
v70
o2
v5
v71
o2
v6
v72
o2
v7
v73
o2
v8
v74
o2
v9
v75
o2
v10
v76
n2
o5
o54
10
o2
o2
v12
v67
v0
o2
o2
v13
v68
v11
o2
o2
v14
v69
v22
o2
o2
v15
v70
v33
o2
o2
v16
v71
v44
o2
o2
v17
v72
v55
o2
o2
v18
v73
v66
o2
o2
v19
v74
v77
o2
o2
v20
v75
v88
o2
o2
v21
v76
v99
n2
o5
o54
10
o2
v12
v67
o2
v13
v68
o2
v14
v69
o2
v15
v70
o2
v16
v71
o2
v17
v72
o2
v18
v73
o2
v19
v74
o2
v20
v75
o2
v21
v76
n2
o5
o54
10
o2
o2
v23
v67
v0
o2
o2
v24
v68
v11
o2
o2
v25
v69
v22
o2
o2
v26
v70
v33
o2
o2
v27
v71
v44
o2
o2
v28
v72
v55
o2
o2
v29
v73
v66
o2
o2
v30
v74
v77
o2
o2
v31
v75
v88
o2
o2
v32
v76
v99
n2
o5
o54
10
o2
v23
v67
o2
v24
v68
o2
v25
v69
o2
v26
v70
o2
v27
v71
o2
v28
v72
o2
v29
v73
o2
v30
v74
o2
v31
v75
o2
v32
v76
n2
o5
o54
10
o2
o2
v34
v67
v0
o2
o2
v35
v68
v11
o2
o2
v36
v69
v22
o2
o2
v37
v70
v33
o2
o2
v38
v71
v44
o2
o2
v39
v72
v55
o2
o2
v40
v73
v66
o2
o2
v41
v74
v77
o2
o2
v42
v75
v88
o2
o2
v43
v76
v99
n2
o5
o54
10
o2
v34
v67
o2
v35
v68
o2
v36
v69
o2
v37
v70
o2
v38
v71
o2
v39
v72
o2
v40
v73
o2
v41
v74
o2
v42
v75
o2
v43
v76
n2
o5
o54
10
o2
o2
v45
v67
v0
o2
o2
v46
v68
v11
o2
o2
v47
v69
v22
o2
o2
v48
v70
v33
o2
o2
v49
v71
v44
o2
o2
v50
v72
v55
o2
o2
v51
v73
v66
o2
o2
v52
v74
v77
o2
o2
v53
v75
v88
o2
o2
v54
v76
v99
n2
o5
o54
10
o2
v45
v67
o2
v46
v68
o2
v47
v69
o2
v48
v70
o2
v49
v71
o2
v50
v72
o2
v51
v73
o2
v52
v74
o2
v53
v75
o2
v54
v76
n2
o5
o54
10
o2
o2
v56
v67
v0
o2
o2
v57
v68
v11
o2
o2
v58
v69
v22
o2
o2
v59
v70
v33
o2
o2
v60
v71
v44
o2
o2
v61
v72
v55
o2
o2
v62
v73
v66
o2
o2
v63
v74
v77
o2
o2
v64
v75
v88
o2
o2
v65
v76
v99
n2
o5
o54
10
o2
v56
v67
o2
v57
v68
o2
v58
v69
o2
v59
v70
o2
v60
v71
o2
v61
v72
o2
v62
v73
o2
v63
v74
o2
v64
v75
o2
v65
v76
n2
o5
o0
n-7
o54
10
o2
o2
v67
v67
v0
o2
o2
v68
v68
v11
o2
o2
v69
v69
v22
o2
o2
v70
v70
v33
o2
o2
v71
v71
v44
o2
o2
v72
v72
v55
o2
o2
v73
v73
v66
o2
o2
v74
v74
v77
o2
o2
v75
v75
v88
o2
o2
v76
v76
v99
n2
o5
o0
n-1
o54
10
o2
v67
v67
o2
v68
v68
o2
v69
v69
o2
v70
v70
o2
v71
v71
o2
v72
v72
o2
v73
v73
o2
v74
v74
o2
v75
v75
o2
v76
v76
n2
o5
o54
10
o2
o2
v1
v78
v0
o2
o2
v2
v79
v11
o2
o2
v3
v80
v22
o2
o2
v4
v81
v33
o2
o2
v5
v82
v44
o2
o2
v6
v83
v55
o2
o2
v7
v84
v66
o2
o2
v8
v85
v77
o2
o2
v9
v86
v88
o2
o2
v10
v87
v99
n2
o5
o54
10
o2
v1
v78
o2
v2
v79
o2
v3
v80
o2
v4
v81
o2
v5
v82
o2
v6
v83
o2
v7
v84
o2
v8
v85
o2
v9
v86
o2
v10
v87
n2
o5
o54
10
o2
o2
v12
v78
v0
o2
o2
v13
v79
v11
o2
o2
v14
v80
v22
o2
o2
v15
v81
v33
o2
o2
v16
v82
v44
o2
o2
v17
v83
v55
o2
o2
v18
v84
v66
o2
o2
v19
v85
v77
o2
o2
v20
v86
v88
o2
o2
v21
v87
v99
n2
o5
o54
10
o2
v12
v78
o2
v13
v79
o2
v14
v80
o2
v15
v81
o2
v16
v82
o2
v17
v83
o2
v18
v84
o2
v19
v85
o2
v20
v86
o2
v21
v87
n2
o5
o54
10
o2
o2
v23
v78
v0
o2
o2
v24
v79
v11
o2
o2
v25
v80
v22
o2
o2
v26
v81
v33
o2
o2
v27
v82
v44
o2
o2
v28
v83
v55
o2
o2
v29
v84
v66
o2
o2
v30
v85
v77
o2
o2
v31
v86
v88
o2
o2
v32
v87
v99
n2
o5
o54
10
o2
v23
v78
o2
v24
v79
o2
v25
v80
o2
v26
v81
o2
v27
v82
o2
v28
v83
o2
v29
v84
o2
v30
v85
o2
v31
v86
o2
v32
v87
n2
o5
o54
10
o2
o2
v34
v78
v0
o2
o2
v35
v79
v11
o2
o2
v36
v80
v22
o2
o2
v37
v81
v33
o2
o2
v38
v82
v44
o2
o2
v39
v83
v55
o2
o2
v40
v84
v66
o2
o2
v41
v85
v77
o2
o2
v42
v86
v88
o2
o2
v43
v87
v99
n2
o5
o54
10
o2
v34
v78
o2
v35
v79
o2
v36
v80
o2
v37
v81
o2
v38
v82
o2
v39
v83
o2
v40
v84
o2
v41
v85
o2
v42
v86
o2
v43
v87
n2
o5
o54
10
o2
o2
v45
v78
v0
o2
o2
v46
v79
v11
o2
o2
v47
v80
v22
o2
o2
v48
v81
v33
o2
o2
v49
v82
v44
o2
o2
v50
v83
v55
o2
o2
v51
v84
v66
o2
o2
v52
v85
v77
o2
o2
v53
v86
v88
o2
o2
v54
v87
v99
n2
o5
o54
10
o2
v45
v78
o2
v46
v79
o2
v47
v80
o2
v48
v81
o2
v49
v82
o2
v50
v83
o2
v51
v84
o2
v52
v85
o2
v53
v86
o2
v54
v87
n2
o5
o54
10
o2
o2
v56
v78
v0
o2
o2
v57
v79
v11
o2
o2
v58
v80
v22
o2
o2
v59
v81
v33
o2
o2
v60
v82
v44
o2
o2
v61
v83
v55
o2
o2
v62
v84
v66
o2
o2
v63
v85
v77
o2
o2
v64
v86
v88
o2
o2
v65
v87
v99
n2
o5
o54
10
o2
v56
v78
o2
v57
v79
o2
v58
v80
o2
v59
v81
o2
v60
v82
o2
v61
v83
o2
v62
v84
o2
v63
v85
o2
v64
v86
o2
v65
v87
n2
o5
o54
10
o2
o2
v67
v78
v0
o2
o2
v68
v79
v11
o2
o2
v69
v80
v22
o2
o2
v70
v81
v33
o2
o2
v71
v82
v44
o2
o2
v72
v83
v55
o2
o2
v73
v84
v66
o2
o2
v74
v85
v77
o2
o2
v75
v86
v88
o2
o2
v76
v87
v99
n2
o5
o54
10
o2
v67
v78
o2
v68
v79
o2
v69
v80
o2
v70
v81
o2
v71
v82
o2
v72
v83
o2
v73
v84
o2
v74
v85
o2
v75
v86
o2
v76
v87
n2
o5
o0
n-8
o54
10
o2
o2
v78
v78
v0
o2
o2
v79
v79
v11
o2
o2
v80
v80
v22
o2
o2
v81
v81
v33
o2
o2
v82
v82
v44
o2
o2
v83
v83
v55
o2
o2
v84
v84
v66
o2
o2
v85
v85
v77
o2
o2
v86
v86
v88
o2
o2
v87
v87
v99
n2
o5
o0
n-1
o54
10
o2
v78
v78
o2
v79
v79
o2
v80
v80
o2
v81
v81
o2
v82
v82
o2
v83
v83
o2
v84
v84
o2
v85
v85
o2
v86
v86
o2
v87
v87
n2
o5
o54
10
o2
o2
v1
v89
v0
o2
o2
v2
v90
v11
o2
o2
v3
v91
v22
o2
o2
v4
v92
v33
o2
o2
v5
v93
v44
o2
o2
v6
v94
v55
o2
o2
v7
v95
v66
o2
o2
v8
v96
v77
o2
o2
v9
v97
v88
o2
o2
v10
v98
v99
n2
o5
o54
10
o2
v1
v89
o2
v2
v90
o2
v3
v91
o2
v4
v92
o2
v5
v93
o2
v6
v94
o2
v7
v95
o2
v8
v96
o2
v9
v97
o2
v10
v98
n2
o5
o54
10
o2
o2
v12
v89
v0
o2
o2
v13
v90
v11
o2
o2
v14
v91
v22
o2
o2
v15
v92
v33
o2
o2
v16
v93
v44
o2
o2
v17
v94
v55
o2
o2
v18
v95
v66
o2
o2
v19
v96
v77
o2
o2
v20
v97
v88
o2
o2
v21
v98
v99
n2
o5
o54
10
o2
v12
v89
o2
v13
v90
o2
v14
v91
o2
v15
v92
o2
v16
v93
o2
v17
v94
o2
v18
v95
o2
v19
v96
o2
v20
v97
o2
v21
v98
n2
o5
o54
10
o2
o2
v23
v89
v0
o2
o2
v24
v90
v11
o2
o2
v25
v91
v22
o2
o2
v26
v92
v33
o2
o2
v27
v93
v44
o2
o2
v28
v94
v55
o2
o2
v29
v95
v66
o2
o2
v30
v96
v77
o2
o2
v31
v97
v88
o2
o2
v32
v98
v99
n2
o5
o54
10
o2
v23
v89
o2
v24
v90
o2
v25
v91
o2
v26
v92
o2
v27
v93
o2
v28
v94
o2
v29
v95
o2
v30
v96
o2
v31
v97
o2
v32
v98
n2
o5
o54
10
o2
o2
v34
v89
v0
o2
o2
v35
v90
v11
o2
o2
v36
v91
v22
o2
o2
v37
v92
v33
o2
o2
v38
v93
v44
o2
o2
v39
v94
v55
o2
o2
v40
v95
v66
o2
o2
v41
v96
v77
o2
o2
v42
v97
v88
o2
o2
v43
v98
v99
n2
o5
o54
10
o2
v34
v89
o2
v35
v90
o2
v36
v91
o2
v37
v92
o2
v38
v93
o2
v39
v94
o2
v40
v95
o2
v41
v96
o2
v42
v97
o2
v43
v98
n2
o5
o54
10
o2
o2
v45
v89
v0
o2
o2
v46
v90
v11
o2
o2
v47
v91
v22
o2
o2
v48
v92
v33
o2
o2
v49
v93
v44
o2
o2
v50
v94
v55
o2
o2
v51
v95
v66
o2
o2
v52
v96
v77
o2
o2
v53
v97
v88
o2
o2
v54
v98
v99
n2
o5
o54
10
o2
v45
v89
o2
v46
v90
o2
v47
v91
o2
v48
v92
o2
v49
v93
o2
v50
v94
o2
v51
v95
o2
v52
v96
o2
v53
v97
o2
v54
v98
n2
o5
o54
10
o2
o2
v56
v89
v0
o2
o2
v57
v90
v11
o2
o2
v58
v91
v22
o2
o2
v59
v92
v33
o2
o2
v60
v93
v44
o2
o2
v61
v94
v55
o2
o2
v62
v95
v66
o2
o2
v63
v96
v77
o2
o2
v64
v97
v88
o2
o2
v65
v98
v99
n2
o5
o54
10
o2
v56
v89
o2
v57
v90
o2
v58
v91
o2
v59
v92
o2
v60
v93
o2
v61
v94
o2
v62
v95
o2
v63
v96
o2
v64
v97
o2
v65
v98
n2
o5
o54
10
o2
o2
v67
v89
v0
o2
o2
v68
v90
v11
o2
o2
v69
v91
v22
o2
o2
v70
v92
v33
o2
o2
v71
v93
v44
o2
o2
v72
v94
v55
o2
o2
v73
v95
v66
o2
o2
v74
v96
v77
o2
o2
v75
v97
v88
o2
o2
v76
v98
v99
n2
o5
o54
10
o2
v67
v89
o2
v68
v90
o2
v69
v91
o2
v70
v92
o2
v71
v93
o2
v72
v94
o2
v73
v95
o2
v74
v96
o2
v75
v97
o2
v76
v98
n2
o5
o54
10
o2
o2
v78
v89
v0
o2
o2
v79
v90
v11
o2
o2
v80
v91
v22
o2
o2
v81
v92
v33
o2
o2
v82
v93
v44
o2
o2
v83
v94
v55
o2
o2
v84
v95
v66
o2
o2
v85
v96
v77
o2
o2
v86
v97
v88
o2
o2
v87
v98
v99
n2
o5
o54
10
o2
v78
v89
o2
v79
v90
o2
v80
v91
o2
v81
v92
o2
v82
v93
o2
v83
v94
o2
v84
v95
o2
v85
v96
o2
v86
v97
o2
v87
v98
n2
o5
o0
n-9
o54
10
o2
o2
v89
v89
v0
o2
o2
v90
v90
v11
o2
o2
v91
v91
v22
o2
o2
v92
v92
v33
o2
o2
v93
v93
v44
o2
o2
v94
v94
v55
o2
o2
v95
v95
v66
o2
o2
v96
v96
v77
o2
o2
v97
v97
v88
o2
o2
v98
v98
v99
n2
o5
o0
n-1
o54
10
o2
v89
v89
o2
v90
v90
o2
v91
v91
o2
v92
v92
o2
v93
v93
o2
v94
v94
o2
v95
v95
o2
v96
v96
o2
v97
v97
o2
v98
v98
n2
o5
o54
10
o2
o2
v1
v100
v0
o2
o2
v2
v101
v11
o2
o2
v3
v102
v22
o2
o2
v4
v103
v33
o2
o2
v5
v104
v44
o2
o2
v6
v105
v55
o2
o2
v7
v106
v66
o2
o2
v8
v107
v77
o2
o2
v9
v108
v88
o2
o2
v10
v109
v99
n2
o5
o54
10
o2
v1
v100
o2
v2
v101
o2
v3
v102
o2
v4
v103
o2
v5
v104
o2
v6
v105
o2
v7
v106
o2
v8
v107
o2
v9
v108
o2
v10
v109
n2
o5
o54
10
o2
o2
v12
v100
v0
o2
o2
v13
v101
v11
o2
o2
v14
v102
v22
o2
o2
v15
v103
v33
o2
o2
v16
v104
v44
o2
o2
v17
v105
v55
o2
o2
v18
v106
v66
o2
o2
v19
v107
v77
o2
o2
v20
v108
v88
o2
o2
v21
v109
v99
n2
o5
o54
10
o2
v12
v100
o2
v13
v101
o2
v14
v102
o2
v15
v103
o2
v16
v104
o2
v17
v105
o2
v18
v106
o2
v19
v107
o2
v20
v108
o2
v21
v109
n2
o5
o54
10
o2
o2
v23
v100
v0
o2
o2
v24
v101
v11
o2
o2
v25
v102
v22
o2
o2
v26
v103
v33
o2
o2
v27
v104
v44
o2
o2
v28
v105
v55
o2
o2
v29
v106
v66
o2
o2
v30
v107
v77
o2
o2
v31
v108
v88
o2
o2
v32
v109
v99
n2
o5
o54
10
o2
v23
v100
o2
v24
v101
o2
v25
v102
o2
v26
v103
o2
v27
v104
o2
v28
v105
o2
v29
v106
o2
v30
v107
o2
v31
v108
o2
v32
v109
n2
o5
o54
10
o2
o2
v34
v100
v0
o2
o2
v35
v101
v11
o2
o2
v36
v102
v22
o2
o2
v37
v103
v33
o2
o2
v38
v104
v44
o2
o2
v39
v105
v55
o2
o2
v40
v106
v66
o2
o2
v41
v107
v77
o2
o2
v42
v108
v88
o2
o2
v43
v109
v99
n2
o5
o54
10
o2
v34
v100
o2
v35
v101
o2
v36
v102
o2
v37
v103
o2
v38
v104
o2
v39
v105
o2
v40
v106
o2
v41
v107
o2
v42
v108
o2
v43
v109
n2
o5
o54
10
o2
o2
v45
v100
v0
o2
o2
v46
v101
v11
o2
o2
v47
v102
v22
o2
o2
v48
v103
v33
o2
o2
v49
v104
v44
o2
o2
v50
v105
v55
o2
o2
v51
v106
v66
o2
o2
v52
v107
v77
o2
o2
v53
v108
v88
o2
o2
v54
v109
v99
n2
o5
o54
10
o2
v45
v100
o2
v46
v101
o2
v47
v102
o2
v48
v103
o2
v49
v104
o2
v50
v105
o2
v51
v106
o2
v52
v107
o2
v53
v108
o2
v54
v109
n2
o5
o54
10
o2
o2
v56
v100
v0
o2
o2
v57
v101
v11
o2
o2
v58
v102
v22
o2
o2
v59
v103
v33
o2
o2
v60
v104
v44
o2
o2
v61
v105
v55
o2
o2
v62
v106
v66
o2
o2
v63
v107
v77
o2
o2
v64
v108
v88
o2
o2
v65
v109
v99
n2
o5
o54
10
o2
v56
v100
o2
v57
v101
o2
v58
v102
o2
v59
v103
o2
v60
v104
o2
v61
v105
o2
v62
v106
o2
v63
v107
o2
v64
v108
o2
v65
v109
n2
o5
o54
10
o2
o2
v67
v100
v0
o2
o2
v68
v101
v11
o2
o2
v69
v102
v22
o2
o2
v70
v103
v33
o2
o2
v71
v104
v44
o2
o2
v72
v105
v55
o2
o2
v73
v106
v66
o2
o2
v74
v107
v77
o2
o2
v75
v108
v88
o2
o2
v76
v109
v99
n2
o5
o54
10
o2
v67
v100
o2
v68
v101
o2
v69
v102
o2
v70
v103
o2
v71
v104
o2
v72
v105
o2
v73
v106
o2
v74
v107
o2
v75
v108
o2
v76
v109
n2
o5
o54
10
o2
o2
v78
v100
v0
o2
o2
v79
v101
v11
o2
o2
v80
v102
v22
o2
o2
v81
v103
v33
o2
o2
v82
v104
v44
o2
o2
v83
v105
v55
o2
o2
v84
v106
v66
o2
o2
v85
v107
v77
o2
o2
v86
v108
v88
o2
o2
v87
v109
v99
n2
o5
o54
10
o2
v78
v100
o2
v79
v101
o2
v80
v102
o2
v81
v103
o2
v82
v104
o2
v83
v105
o2
v84
v106
o2
v85
v107
o2
v86
v108
o2
v87
v109
n2
o5
o54
10
o2
o2
v89
v100
v0
o2
o2
v90
v101
v11
o2
o2
v91
v102
v22
o2
o2
v92
v103
v33
o2
o2
v93
v104
v44
o2
o2
v94
v105
v55
o2
o2
v95
v106
v66
o2
o2
v96
v107
v77
o2
o2
v97
v108
v88
o2
o2
v98
v109
v99
n2
o5
o54
10
o2
v89
v100
o2
v90
v101
o2
v91
v102
o2
v92
v103
o2
v93
v104
o2
v94
v105
o2
v95
v106
o2
v96
v107
o2
v97
v108
o2
v98
v109
n2
o5
o0
n-10
o54
10
o2
o2
v100
v100
v0
o2
o2
v101
v101
v11
o2
o2
v102
v102
v22
o2
o2
v103
v103
v33
o2
o2
v104
v104
v44
o2
o2
v105
v105
v55
o2
o2
v106
v106
v66
o2
o2
v107
v107
v77
o2
o2
v108
v108
v88
o2
o2
v109
v109
v99
n2
o5
o0
n-1
o54
10
o2
v100
v100
o2
v101
v101
o2
v102
v102
o2
v103
v103
o2
v104
v104
o2
v105
v105
o2
v106
v106
o2
v107
v107
o2
v108
v108
o2
v109
v109
n2
k109
0
0
0
0
0
0
0
0
0
0
0
0
0
0
0
0
0
0
0
0
0
0
0
0
0
0
0
0
0
0
0
0
0
0
0
0
0
0
0
0
0
0
0
0
0
0
0
0
0
0
0
0
0
0
0
0
0
0
0
0
0
0
0
0
0
0
0
0
0
0
0
0
0
0
0
0
0
0
0
0
0
0
0
0
0
0
0
0
0
0
0
0
0
0
0
0
0
0
0
0
0
0
0
0
0
0
0
0
0
G0 110
0 0
1 0
2 0
3 0
4 0
5 0
6 0
7 0
8 0
9 0
10 0
11 0
12 0
13 0
14 0
15 0
16 0
17 0
18 0
19 0
20 0
21 0
22 0
23 0
24 0
25 0
26 0
27 0
28 0
29 0
30 0
31 0
32 0
33 0
34 0
35 0
36 0
37 0
38 0
39 0
40 0
41 0
42 0
43 0
44 0
45 0
46 0
47 0
48 0
49 0
50 0
51 0
52 0
53 0
54 0
55 0
56 0
57 0
58 0
59 0
60 0
61 0
62 0
63 0
64 0
65 0
66 0
67 0
68 0
69 0
70 0
71 0
72 0
73 0
74 0
75 0
76 0
77 0
78 0
79 0
80 0
81 0
82 0
83 0
84 0
85 0
86 0
87 0
88 0
89 0
90 0
91 0
92 0
93 0
94 0
95 0
96 0
97 0
98 0
99 0
100 0
101 0
102 0
103 0
104 0
105 0
106 0
107 0
108 0
109 0
